c gencount --qnf --reset 2
c $Id: gencount.c,v 1.19 2003/11/17 21:14:59 biere Exp $
p cnf 50 121
e 25 26 27 28 29 30 31 32 33 34 35 36 43 44 45 46 47 48 0
r 0.91 50 0
e 13 14 15 16 17 18 19 20 21 22 23 24 37 38 39 40 41 42 0
r 0.486 49 0
e 1 2 3 4 5 6 7 8 9 10 11 12 0
-50 -13 25 0
-50 13 -25 0
-50 -14 26 0
-50 14 -26 0
-50 -15 27 0
-50 15 -27 0
-50 -16 28 0
-50 16 -28 0
-50 -17 29 0
-50 17 -29 0
-50 -18 30 0
-50 18 -30 0
-50 -19 43 0
-50 19 -43 0
-50 -20 44 0
-50 20 -44 0
-50 -21 45 0
-50 21 -45 0
-50 -22 46 0
-50 22 -46 0
-50 -23 47 0
-50 23 -47 0
-50 -24 48 0
-50 24 -48 0
50 -13 43 0
50 13 -43 0
50 -14 44 0
50 14 -44 0
50 -15 45 0
50 15 -45 0
50 -16 46 0
50 16 -46 0
50 -17 47 0
50 17 -47 0
50 -18 48 0
50 18 -48 0
50 -19 31 0
50 19 -31 0
50 -20 32 0
50 20 -32 0
50 -21 33 0
50 21 -33 0
50 -22 34 0
50 22 -34 0
50 -23 35 0
50 23 -35 0
50 -24 36 0
50 24 -36 0
-49 -1 13 0
-49 1 -13 0
-49 -2 14 0
-49 2 -14 0
-49 -3 15 0
-49 3 -15 0
-49 -4 16 0
-49 4 -16 0
-49 -5 17 0
-49 5 -17 0
-49 -6 18 0
-49 6 -18 0
-49 -7 37 0
-49 7 -37 0
-49 -8 38 0
-49 8 -38 0
-49 -9 39 0
-49 9 -39 0
-49 -10 40 0
-49 10 -40 0
-49 -11 41 0
-49 11 -41 0
-49 -12 42 0
-49 12 -42 0
49 -1 37 0
49 1 -37 0
49 -2 38 0
49 2 -38 0
49 -3 39 0
49 3 -39 0
49 -4 40 0
49 4 -40 0
49 -5 41 0
49 5 -41 0
49 -6 42 0
49 6 -42 0
49 -7 19 0
49 7 -19 0
49 -8 20 0
49 8 -20 0
49 -9 21 0
49 9 -21 0
49 -10 22 0
49 10 -22 0
49 -11 23 0
49 11 -23 0
49 -12 24 0
49 12 -24 0
-26 0
-29 0
-30 0
-4 6 0
-4 3 0
4 -6 -3 0
-3 5 0
3 -5 0
1 -12 6 3 0
1 -12 -6 -3 0
1 12 -6 3 0
1 12 6 -3 0
1 -11 -5 0
1 11 5 0
-1 -12 0
-1 -11 0
-8 2 4 0
-2 8 0
8 -4 0
-10 12 0
-10 9 0
10 -12 -9 0
-9 11 0
9 -11 0
32 0
